CUDA is not available.  Training on CPU ...
Constructing the solver...
	Loading data...
	Constructing constraints...
		Constructing flow conservation matrix...
		Constructing trip demand matrix...
		Constructing charging facility matrix...
		Constructing total flow matrix...
Training...
	Setting up...
Set parameter WLSAccessID
Set parameter WLSSecret
Set parameter LicenseID to value 2415008
Academic license - for non-commercial use only - registered to zz564@cornell.edu
Set parameter Method to value 2
Set parameter Crossover to value 0
	Optimizing...
Gurobi Optimizer version 10.0.2 build v10.0.2rc0 (linux64)

CPU model: Intel Core Processor (Haswell, no TSX, IBRS), instruction set [SSE2|AVX|AVX2]
Thread count: 4 physical cores, 4 logical processors, using up to 4 threads

Academic license - for non-commercial use only - registered to zz564@cornell.edu
Optimize a model with 309600 rows, 2121120 columns and 14879232 nonzeros
Model fingerprint: 0xf816ffa9
Coefficient statistics:
  Matrix range     [1e+00, 1e+00]
  Objective range  [7e-02, 9e+01]
  Bounds range     [0e+00, 0e+00]
  RHS range        [8e-03, 1e+02]
Presolve removed 103392 rows and 112032 columns (presolve time = 6s) ...
Presolve removed 103392 rows and 112032 columns (presolve time = 10s) ...
Presolve removed 103393 rows and 112032 columns
Presolve time: 11.47s
Presolved: 206207 rows, 2009088 columns, 13836520 nonzeros
Elapsed ordering time = 5s
Elapsed ordering time = 20s
Elapsed ordering time = 25s
Elapsed ordering time = 30s
Elapsed ordering time = 34s
Elapsed ordering time = 35s
Elapsed ordering time = 40s
Elapsed ordering time = 45s
Elapsed ordering time = 49s
Elapsed ordering time = 50s
Elapsed ordering time = 55s
Elapsed ordering time = 60s
Elapsed ordering time = 64s
Elapsed ordering time = 65s
Elapsed ordering time = 70s
Elapsed ordering time = 75s
Elapsed ordering time = 80s
Elapsed ordering time = 85s
Elapsed ordering time = 90s
Ordering time: 96.37s

Barrier statistics:
 AA' NZ     : 6.876e+06
 Factor NZ  : 8.065e+08 (roughly 7.0 GB of memory)
 Factor Ops : 6.162e+12 (roughly 80 seconds per iteration)
 Threads    : 4

                  Objective                Residual
Iter       Primal          Dual         Primal    Dual     Compl     Time
   0   6.28203309e+08  1.01189572e+05  8.53e+05 6.70e+00  4.05e+02   165s
   1   1.23180641e+08 -4.97800939e+05  1.68e+05 8.30e+00  8.67e+01   214s
   2   1.34984979e+07  1.18379554e+06  1.83e+04 1.47e+00  1.03e+01   260s
   3   3.83268704e+05  1.12833818e+06  3.78e+02 2.42e-02  3.30e-01   309s
   4   1.11278143e+05  6.20201763e+05  2.38e+01 7.04e-03  7.55e-02   357s
   5   1.02312341e+05  2.54608584e+05  2.35e+00 1.54e-03  1.96e-02   408s
   6   1.11968379e+05  1.90529882e+05  5.82e-01 7.50e-04  9.92e-03   462s
   7   1.14869985e+05  1.75846646e+05  4.10e-01 5.87e-04  7.69e-03   511s
   8   1.18335754e+05  1.56411585e+05  2.36e-01 3.66e-04  4.79e-03   561s
   9   1.20390895e+05  1.48228642e+05  1.61e-01 2.69e-04  3.50e-03   612s
  10   1.21672592e+05  1.40238875e+05  1.26e-01 1.74e-04  2.34e-03   667s
  11   1.23257728e+05  1.36731836e+05  8.69e-02 1.28e-04  1.70e-03   721s
  12   1.24425337e+05  1.35071477e+05  6.24e-02 1.03e-04  1.34e-03   772s
  13   1.25098723e+05  1.33369134e+05  5.03e-02 7.90e-05  1.04e-03   826s
  14   1.25647418e+05  1.32291627e+05  4.15e-02 6.32e-05  8.36e-04   874s
  15   1.26264252e+05  1.31741462e+05  3.24e-02 5.44e-05  6.89e-04   924s
  16   1.26557863e+05  1.31402359e+05  2.85e-02 4.79e-05  6.09e-04  1009s
  17   1.26953082e+05  1.30989699e+05  2.36e-02 4.03e-05  5.08e-04  1097s
  18   1.27234814e+05  1.30725416e+05  2.01e-02 3.54e-05  4.39e-04  1181s
  19   1.27584498e+05  1.30419569e+05  1.61e-02 2.94e-05  3.57e-04  1264s
  20   1.27780168e+05  1.30262241e+05  1.39e-02 2.56e-05  3.12e-04  1346s
  21   1.27967918e+05  1.30115253e+05  1.20e-02 2.23e-05  2.70e-04  1432s
  22   1.28128245e+05  1.29941220e+05  1.03e-02 1.86e-05  2.28e-04  1522s
  23   1.28283087e+05  1.29824897e+05  8.77e-03 1.58e-05  1.94e-04  1607s
  24   1.28475081e+05  1.29699447e+05  6.94e-03 1.28e-05  1.54e-04  1695s
  25   1.28652447e+05  1.29583411e+05  5.29e-03 9.81e-06  1.17e-04  1781s
  26   1.28784412e+05  1.29531123e+05  4.09e-03 8.45e-06  9.39e-05  1866s
  27   1.28875859e+05  1.29472064e+05  3.27e-03 6.84e-06  7.50e-05  1956s
  28   1.28956257e+05  1.29429099e+05  2.55e-03 5.53e-06  5.95e-05  2045s
  29   1.29028482e+05  1.29370796e+05  1.92e-03 3.70e-06  4.31e-05  2134s
  30   1.29091466e+05  1.29339997e+05  1.37e-03 2.70e-06  3.13e-05  2219s
  31   1.29124477e+05  1.29321420e+05  1.10e-03 2.12e-06  2.48e-05  2301s
  32   1.29162597e+05  1.29304617e+05  7.74e-04 1.59e-06  1.79e-05  2395s
  33   1.29193085e+05  1.29293084e+05  5.17e-04 1.21e-06  1.26e-05  2491s
  34   1.29210341e+05  1.29282279e+05  3.77e-04 8.42e-07  9.05e-06  2578s
  35   1.29224100e+05  1.29273602e+05  2.65e-04 5.43e-07  6.22e-06  2671s
  36   1.29233874e+05  1.29270002e+05  1.87e-04 4.22e-07  4.54e-06  2753s
  37   1.29242284e+05  1.29266832e+05  1.18e-04 3.14e-07  3.09e-06  2840s
  38   1.29246772e+05  1.29262835e+05  8.27e-05 1.76e-07  2.02e-06  2934s
  39   1.29250099e+05  1.29261687e+05  5.67e-05 1.38e-07  1.46e-06  3021s
  40   1.29252091e+05  1.29260567e+05  4.13e-05 1.00e-07  1.07e-06  3108s
  41   1.29253250e+05  1.29259818e+05  3.25e-05 7.43e-08  8.26e-07  3189s
  42   1.29254816e+05  1.29259125e+05  2.07e-05 5.10e-08  5.42e-07  3279s
  43   1.29255573e+05  1.29258720e+05  1.50e-05 3.72e-08  3.96e-07  3368s
  44   1.29256276e+05  1.29258392e+05  9.72e-06 2.69e-08  2.66e-07  3462s
  45   1.29256691e+05  1.29258211e+05  6.64e-06 2.06e-08  1.91e-07  3544s
  46   1.29256904e+05  1.29258129e+05  5.52e-06 1.82e-08  1.54e-07  3630s
  47   1.29257095e+05  1.29257891e+05  7.79e-06 9.91e-09  1.00e-07  3722s
  48   1.29257308e+05  1.29257784e+05  2.09e-05 6.20e-09  5.98e-08  3820s
  49   1.29257463e+05  1.29257713e+05  9.95e-06 3.72e-09  3.14e-08  3911s
  50   1.29257504e+05  1.29257682e+05  7.53e-06 2.62e-09  2.24e-08  4002s
  51   1.29257521e+05  1.29257667e+05  6.25e-06 2.08e-09  1.84e-08  4086s
  52   1.29257534e+05  1.29257654e+05  7.69e-06 1.64e-09  1.52e-08  4174s
  53   1.29257541e+05  1.29257645e+05  6.89e-06 1.29e-09  1.30e-08  4260s
  54   1.29257578e+05  1.29257627e+05  2.99e-06 6.60e-10  6.06e-09  4353s
  55   1.29257595e+05  1.29257611e+05  1.40e-06 9.34e-11  1.98e-09  4452s
  56   1.29257601e+05  1.29257609e+05  7.77e-07 4.80e-11  1.06e-09  4541s
  57   1.29257602e+05  1.29257609e+05  5.93e-07 4.29e-11  8.30e-10  4630s
  58   1.29257604e+05  1.29257608e+05  3.80e-07 2.34e-11  4.94e-10  4728s
  59   1.29257606e+05  1.29257608e+05  1.47e-07 1.42e-11  2.15e-10  4832s
  60   1.29257606e+05  1.29257608e+05  1.23e-07 8.92e-12  1.68e-10  4924s
  61   1.29257607e+05  1.29257608e+05  7.51e-08 8.62e-12  1.07e-10  5015s

Barrier solved model in 61 iterations and 5014.66 seconds (3618.00 work units)
Optimal objective 1.29257607e+05

0.9054870425409749
	Gathering...
	Constructing constraints...
		Constructing flow conservation matrix...
		Constructing trip demand matrix...
		Constructing charging facility matrix...
		Constructing total flow matrix...
	Constructing constraints...
		Constructing flow conservation matrix...
		Constructing trip demand matrix...
		Constructing charging facility matrix...
		Constructing total flow matrix...
	Constructing constraints...
		Constructing flow conservation matrix...
		Constructing trip demand matrix...
		Constructing charging facility matrix...
		Constructing total flow matrix...
	Constructing constraints...
		Constructing flow conservation matrix...
		Constructing trip demand matrix...
		Constructing charging facility matrix...
		Constructing total flow matrix...
	Constructing constraints...
		Constructing flow conservation matrix...
		Constructing trip demand matrix...
		Constructing charging facility matrix...
		Constructing total flow matrix...
	Constructing constraints...
		Constructing flow conservation matrix...
		Constructing trip demand matrix...
		Constructing charging facility matrix...
		Constructing total flow matrix...
	Constructing constraints...
		Constructing flow conservation matrix...
		Constructing trip demand matrix...
		Constructing charging facility matrix...
		Constructing total flow matrix...
	Constructing constraints...
		Constructing flow conservation matrix...
		Constructing trip demand matrix...
		Constructing charging facility matrix...
		Constructing total flow matrix...
	Constructing constraints...
		Constructing flow conservation matrix...
		Constructing trip demand matrix...
		Constructing charging facility matrix...
		Constructing total flow matrix...
	Constructing constraints...
		Constructing flow conservation matrix...
		Constructing trip demand matrix...
		Constructing charging facility matrix...
		Constructing total flow matrix...
Total Payoff = 0.6166587159474604
